%Chk=lig-opt.chk
%mem=6500MB
%nprocs=4
%lindaworkers=localhost
#B3LYP/6-31g* opt freq=noraman

Geometry optimization for ligand

0 1
#PASTE THE COORDINATES HERE


